DIMENSION: 16
TOUR_SECTION
7 38.42 13.11
16 39.36 19.56
12 38.47 15.13
6 37.56 12.19
11 36.08 -5.21
10 41.17 13.05
4 36.26 23.12
17 0 0
2 39.57 26.15
14 37.51 15.17
5 33.48 10.54
13 38.15 15.35
15 35.49 14.32
9 41.23 9.1
8 37.52 20.44
3 40.56 25.32
7 38.42 13.11
